(set-info :smt-lib-version 2.6)
(set-logic QF_UFLRA)
(set-info :source |
MathSat group

|)
(set-info :category "random")
(set-info :status sat)
(declare-fun x0 () Real)
(declare-fun x1 () Real)
(declare-fun x2 () Real)
(declare-fun x3 () Real)
(declare-fun x4 () Real)
(declare-fun x5 () Real)
(declare-fun x6 () Real)
(declare-fun x7 () Real)
(declare-fun x8 () Real)
(declare-fun x9 () Real)
(declare-fun x10 () Real)
(declare-fun x11 () Real)
(declare-fun x12 () Real)
(declare-fun x13 () Real)
(declare-fun x14 () Real)
(declare-fun x15 () Real)
(declare-fun x16 () Real)
(declare-fun x17 () Real)
(declare-fun x18 () Real)
(declare-fun x19 () Real)
(declare-fun x20 () Real)
(declare-fun x21 () Real)
(declare-fun x22 () Real)
(declare-fun x23 () Real)
(declare-fun x24 () Real)
(declare-fun x25 () Real)
(declare-fun x26 () Real)
(declare-fun x27 () Real)
(declare-fun x28 () Real)
(declare-fun x29 () Real)
(declare-fun x30 () Real)
(declare-fun x31 () Real)
(declare-fun x32 () Real)
(declare-fun x33 () Real)
(declare-fun x34 () Real)
(declare-fun x35 () Real)
(declare-fun x36 () Real)
(declare-fun x37 () Real)
(declare-fun x38 () Real)
(declare-fun x39 () Real)
(declare-fun x40 () Real)
(declare-fun x41 () Real)
(declare-fun x42 () Real)
(declare-fun x43 () Real)
(declare-fun x44 () Real)
(declare-fun x45 () Real)
(declare-fun x46 () Real)
(declare-fun x47 () Real)
(declare-fun x48 () Real)
(declare-fun x49 () Real)
(declare-fun f0_1 (Real) Real)
(declare-fun f0_2 (Real Real) Real)
(declare-fun f0_3 (Real Real Real) Real)
(declare-fun f0_4 (Real Real Real Real) Real)
(declare-fun P0 () Bool)
(declare-fun P1 () Bool)
(declare-fun P2 () Bool)
(declare-fun P3 () Bool)
(declare-fun P4 () Bool)
(declare-fun P5 () Bool)
(declare-fun P6 () Bool)
(declare-fun P7 () Bool)
(declare-fun P8 () Bool)
(declare-fun P9 () Bool)
(declare-fun P10 () Bool)
(declare-fun P11 () Bool)
(declare-fun P12 () Bool)
(declare-fun P13 () Bool)
(declare-fun P14 () Bool)
(declare-fun P15 () Bool)
(declare-fun P16 () Bool)
(declare-fun P17 () Bool)
(declare-fun P18 () Bool)
(declare-fun P19 () Bool)
(declare-fun P20 () Bool)
(declare-fun P21 () Bool)
(declare-fun P22 () Bool)
(declare-fun P23 () Bool)
(declare-fun P24 () Bool)
(declare-fun P25 () Bool)
(declare-fun P26 () Bool)
(declare-fun P27 () Bool)
(declare-fun P28 () Bool)
(declare-fun P29 () Bool)
(declare-fun P30 () Bool)
(declare-fun P31 () Bool)
(declare-fun P32 () Bool)
(declare-fun P33 () Bool)
(declare-fun P34 () Bool)
(declare-fun P35 () Bool)
(declare-fun P36 () Bool)
(declare-fun P37 () Bool)
(declare-fun P38 () Bool)
(declare-fun P39 () Bool)
(declare-fun P40 () Bool)
(declare-fun P41 () Bool)
(declare-fun P42 () Bool)
(declare-fun P43 () Bool)
(declare-fun P44 () Bool)
(declare-fun P45 () Bool)
(declare-fun P46 () Bool)
(declare-fun P47 () Bool)
(declare-fun P48 () Bool)
(declare-fun P49 () Bool)
(assert (let ((?v_32 (* 20 x22)) (?v_13 (<= (+ (- (* 17 x8) (* 5 x39)) (* 20 x11)) 5)) (?v_45 (* 3 x34))) (let ((?v_35 (= (- (+ ?v_45 (* 4 x25)) (* 27 x14)) 7)) (?v_41 (<= (- (- (* 14 x35) (* 19 x14)) (* 11 x28)) 10)) (?v_98 (* 8 x26)) (?v_79 (* 9 x39)) (?v_143 (= (- (- (* 15 x45) (* 26 x31)) ?v_45) 0)) (?v_206 (< (- (+ (* 23 x25) (* 3 x49)) (* 16 x38)) 24)) (?v_176 (< (- (+ (* 27 x21) (* 18 x30)) (* 18 x1)) 29)) (?v_120 (<= (- (+ (* 23 x44) (* 15 x37)) (* 24 x21)) 12)) (?v_106 (<= (+ (- (* 8 x24) (* 25 x37)) (* 5 x14)) 0)) (?v_42 (< (- (+ (* 24 x4) (* 26 x3)) (* 17 x24)) 16)) (?v_198 (<= (- (- (* 22 x40) (* 21 x48)) (* 11 x49)) 19)) (?v_31 (< (- (+ (* 3 x6) (* 16 x5)) (* 26 x29)) 10)) (?v_71 (= (f0_2 x33 x28) x24)) (?v_64 (= x27 (f0_1 x23))) (?v_86 (distinct (f0_1 x7) (f0_1 x26))) (?v_210 (distinct x12 x15)) (?v_17 (f0_1 x33))) (let ((?v_130 (distinct ?v_17 (f0_1 x8))) (?v_248 (distinct (f0_1 x32) (f0_2 x29 x14))) (?v_201 (distinct x6 x27)) (?v_6 (f0_2 x16 x1))) (let ((?v_46 (distinct ?v_6 (f0_2 x20 x8))) (?v_44 (f0_1 x15))) (let ((?v_90 (distinct (f0_2 x41 x43) ?v_44)) (?v_119 (distinct (f0_2 x8 x2) (f0_2 x42 x6))) (?v_111 (= (f0_2 x30 x17) x15)) (?v_50 (= (f0_2 x11 x31) (f0_2 x29 x34))) (?v_82 (distinct x45 (f0_2 x15 x18))) (?v_153 (= x6 x34)) (?v_207 (= (f0_1 x46) (f0_1 x20))) (?v_121 (= (f0_2 x47 x17) (f0_1 x3))) (?v_62 (= (f0_2 x30 x40) (f0_2 x15 x5))) (?v_43 (distinct x20 x36)) (?v_152 (= (f0_2 x24 x12) ?v_6)) (?v_150 (distinct (f0_1 x40) x44)) (?v_4 (= x26 (f0_2 x49 x13))) (?v_15 (f0_1 x0))) (let ((?v_53 (= ?v_15 ?v_17)) (?v_54 (= ?v_15 x19)) (?v_8 (distinct (f0_2 x18 x31) x34)) (?v_132 (distinct (f0_2 x11 x49) x35)) (?v_11 (f0_1 x36))) (let ((?v_83 (= ?v_11 (f0_2 x3 x15))) (?v_179 (= x33 x5)) (?v_80 (= x23 (f0_1 x47))) (?v_191 (distinct (f0_1 x2) x23)) (?v_21 (distinct x30 x15)) (?v_75 (= x43 (f0_2 x21 x19))) (?v_40 (= ?v_11 x22)) (?v_89 (= x22 x10)) (?v_28 (f0_1 x19))) (let ((?v_91 (= (f0_2 x4 x35) ?v_28)) (?v_24 (distinct (f0_2 x25 x38) x43)) (?v_37 (= x45 (f0_2 x4 x47))) (?v_171 (= x12 ?v_15)) (?v_72 (f0_1 x4))) (let ((?v_253 (= ?v_72 (f0_2 x12 x21))) (?v_56 (distinct ?v_11 (f0_1 x31))) (?v_180 (= (f0_1 x42) x36)) (?v_29 (= x0 ?v_28)) (?v_78 (= ?v_44 x35)) (?v_161 (distinct (f0_1 x34) ?v_28)) (?v_74 (= x20 (f0_1 x18))) (?v_58 (= x19 x44)) (?v_196 (= (f0_1 x29) x38)) (?v_93 (= (f0_2 x13 x48) (f0_1 x35))) (?v_10 (distinct x7 (f0_2 x28 x43))) (?v_187 (distinct (f0_1 x21) (f0_1 x41))) (?v_113 (= ?v_72 x13)) (?v_232 (not ?v_35)) (?v_34 (not ?v_206)) (?v_25 (not P0)) (?v_101 (not P16)) (?v_65 (not ?v_152))) (let ((?v_3 (not ?v_161)) (?v_5 (not ?v_89)) (?v_39 (not P37)) (?v_69 (not ?v_210)) (?v_61 (not P39)) (?v_193 (not ?v_4)) (?v_146 (not P10)) (?v_7 (not ?v_50)) (?v_22 (not P44)) (?v_20 (not ?v_75)) (?v_68 (not ?v_8)) (?v_49 (not P14)) (?v_57 (not P45)) (?v_9 (not P11)) (?v_27 (not P40)) (?v_18 (not ?v_248)) (?v_67 (not ?v_83)) (?v_19 (not ?v_207)) (?v_36 (not ?v_43)) (?v_23 (not ?v_53)) (?v_47 (not ?v_130)) (?v_225 (not ?v_78)) (?v_104 (not ?v_42)) (?v_112 (not P23)) (?v_163 (not ?v_29)) (?v_48 (not ?v_119)) (?v_51 (not P24)) (?v_81 (not P27)) (?v_224 (not ?v_37)) (?v_97 (not ?v_253)) (?v_186 (not P26)) (?v_137 (not P43)) (?v_226 (not P18)) (?v_133 (not P21)) (?v_166 (not ?v_143)) (?v_77 (not ?v_58)) (?v_147 (not ?v_46)) (?v_239 (not ?v_10)) (?v_124 (not P35)) (?v_222 (not P3)) (?v_70 (not ?v_191)) (?v_127 (not P13)) (?v_154 (not P15)) (?v_131 (not ?v_64)) (?v_108 (not P30)) (?v_181 (not P48)) (?v_214 (not ?v_71)) (?v_258 (not P41)) (?v_107 (not P33)) (?v_118 (not ?v_176)) (?v_105 (not P6)) (?v_213 (not P7)) (?v_158 (not P9)) (?v_194 (not ?v_74)) (?v_134 (not P25)) (?v_128 (not ?v_80)) (?v_230 (not ?v_120)) (?v_125 (not ?v_90)) (?v_175 (not P5)) (?v_155 (not P20)) (?v_250 (not ?v_40)) (?v_216 (not ?v_91)) (?v_110 (not P36)) (?v_164 (not ?v_86)) (?v_160 (not P29)) (?v_233 (not ?v_13)) (?v_243 (not P19)) (?v_223 (not P8)) (?v_149 (not ?v_171)) (?v_199 (not ?v_113)) (?v_235 (not ?v_24)) (?v_156 (not P46)) (?v_241 (not P17)) (?v_202 (not ?v_121)) (?v_183 (not ?v_196)) (?v_141 (not P4)) (?v_205 (not P2)) (?v_192 (not P22)) (?v_238 (not ?v_93)) (?v_159 (not ?v_198)) (?v_173 (not ?v_54)) (?v_177 (not P32)) (?v_234 (not ?v_180)) (?v_220 (not ?v_132)) (?v_185 (not ?v_62)) (?v_178 (not P28)) (?v_200 (not ?v_150)) (?v_242 (not P42)) (?v_228 (not P38)) (?v_219 (not ?v_153)) (?v_215 (not P1)) (?v_190 (not ?v_111)) (?v_245 (not ?v_187)) (?v_211 (not ?v_106)) (?v_240 (not ?v_201)) (?v_209 (not P31)) (?v_259 (not P49)) (?v_227 (not ?v_41)) (?v_217 (not ?v_179)) (?v_247 (not ?v_31)) (?v_257 (not P47)) (?v_254 (not ?v_82)) (?v_251 (not ?v_56)) (?v_255 (not P34)) (?v_2 (<= (+ x34 (* 26 x43) (* 19 x24)) 13)) (?v_116 (< (+ (* 12 x48) (* 10 x35) (* 27 x20)) 22))) (let ((?v_0 (not ?v_116)) (?v_123 (< (- (- (* 3 x23) (* 12 x32)) 0) 2)) (?v_114 (< (+ (* 20 x3) (* 14 x20) (* 24 x32)) 0))) (let ((?v_99 (not ?v_114)) (?v_85 (distinct (- (* 26 x49) (* 17 x28)) 5)) (?v_162 (< (+ ?v_79 (* 19 x37) (* 26 x42)) 4))) (let ((?v_109 (not ?v_162)) (?v_203 (not ?v_85)) (?v_221 (not ?v_2)) (?v_246 (or ?v_245 ?v_0)) (?v_252 (not ?v_123)) (?v_170 (<= (- (* (- 27) x33) ?v_32) 28)) (?v_142 (<= (- (+ (* (- 26) x18) (* 8 x3)) (* 27 x40)) (- 5)))) (let ((?v_136 (not ?v_142)) (?v_1 (distinct (+ (- (* (- 26) x6) (* 26 x11)) (* 24 x41)) 0))) (let ((?v_33 (not ?v_1)) (?v_100 (distinct (+ (- (* (- 2) x8) (* 19 x29)) (* 15 x29)) 16)) (?v_122 (<= (+ (* (- 17) x37) ?v_79 (* 23 x37)) 11))) (let ((?v_184 (not ?v_122)) (?v_63 (distinct (+ (- (* (- 12) x32) (* 17 x2)) (* 25 x48)) (- 13)))) (let ((?v_14 (not ?v_63)) (?v_12 (= (- (- (* (- 6) x18) (* 22 x44)) (* 27 x28)) (- 9))) (?v_94 (distinct (- (- (* (- 20) x25) (* 7 x49)) (* 22 x2)) 10))) (let ((?v_16 (not ?v_94)) (?v_55 (<= (- (- (* (- 19) x16) (* 10 x24)) (* 6 x23)) (- 4)))) (let ((?v_87 (not ?v_55)) (?v_167 (< (+ (* (- 9) x18) (* 19 x23) (* 20 x23)) 7)) (?v_30 (< (- (- (* (- 2) x32) (* 11 x19)) (* 11 x8)) 20))) (let ((?v_26 (not ?v_30)) (?v_73 (<= (- (+ ?v_98 (* 7 x33)) 0) (- 11))) (?v_59 (<= (- (- (* 6 x22) (* 26 x10)) (* 27 x10)) (- 18))) (?v_92 (<= (- (- (* (- 17) x44) x41) (* 19 x34)) 22))) (let ((?v_148 (not ?v_92)) (?v_60 (< (+ (* (- 27) x12) (* 4 x20) (* 27 x27)) 9)) (?v_145 (not ?v_12)) (?v_135 (<= (+ (- (* (- 25) x13) (* 3 x2)) ?v_32) 17))) (let ((?v_129 (not ?v_135)) (?v_66 (< (+ (* (- 14) x36) x3 (* 9 x18)) (- 27))) (?v_38 (< (+ (* 8 x27) (* 24 x16)) (- 25))) (?v_52 (< (- (- (* 19 x9) (* 6 x47)) (* 10 x1)) (- 28)))) (let ((?v_260 (not ?v_38)) (?v_204 (= (+ (* (- 12) x44) (* 12 x27) (* 22 x47)) 29)) (?v_144 (= (+ (- (* (- 5) x19) (* 27 x18)) (* 15 x48)) (- 23))) (?v_218 (not ?v_59)) (?v_102 (not ?v_52)) (?v_169 (not ?v_66)) (?v_229 (< (- (- (* (- 14) x15) (* 7 x38)) (* 23 x13)) (- 27)))) (let ((?v_151 (not ?v_229)) (?v_76 (not ?v_73)) (?v_182 (<= (+ (- (* (- 27) x32) (* 24 x31)) (* 13 x9)) (- 4))) (?v_157 (< (+ (* 6 x44) (* 23 x34) (* 20 x2)) (- 22)))) (let ((?v_115 (not ?v_157)) (?v_95 (< (+ (- (* (- 3) x0) x38) (* 15 x2)) (- 18)))) (let ((?v_256 (not ?v_95)) (?v_88 (<= (- (+ (* 21 x3) (* 23 x42)) 0) (- 9)))) (let ((?v_84 (not ?v_88)) (?v_117 (<= (+ (* (- 14) x7) (* 11 x24) (* 21 x17)) (- 7)))) (let ((?v_168 (not ?v_117)) (?v_174 (* (- 16) x27))) (let ((?v_165 (<= (- (+ ?v_174 (* 8 x31)) 0) (- 22)))) (let ((?v_140 (not ?v_165)) (?v_208 (<= (- (+ (* (- 22) x40) (* 24 x34)) (* 10 x5)) 2))) (let ((?v_96 (not ?v_208)) (?v_138 (distinct (+ (* 6 x5) (* 7 x26) (* 2 x38)) (- 8)))) (let ((?v_139 (not ?v_138)) (?v_103 (< (- (+ (* (- 24) x0) ?v_98) (* 27 x45)) 12)) (?v_197 (not ?v_100))) (let ((?v_237 (not ?v_103)) (?v_126 (= (+ (* (- 20) x44) (* 12 x14) (* 20 x48)) 22))) (let ((?v_189 (not ?v_126)) (?v_172 (not ?v_144)) (?v_212 (not ?v_60)) (?v_231 (not ?v_167)) (?v_195 (< (- (- ?v_174 (* 10 x16)) (* 8 x46)) (- 16)))) (let ((?v_188 (not ?v_195)) (?v_236 (not ?v_170)) (?v_249 (not ?v_182)) (?v_244 (not ?v_204))) (and (and (and (and (and (and (and (and (and (and (and (and (and (and (and (and (and (and (and (and (and (and (and (and (and (and (and (and (and (and (and (and (and (and (and (and (and (and (and (and (and (and (and (and (and (and (and (and (and (and (and (and (and (and (and (and (and (and (and (and (and (and (and (and (and (and (and (and (and (and (and (and (and (and (and (and (and (and (and (and (and (and (and (and (and (and (and (and (and (and (and (and (and (and (and (and (and (and (and (and (and (and (and (and (and (and (and (and (and (and (and (and (and (and (and (and (and (and (and (and (and (and (and (and (and (and (and (and (and (and (and (and (and (and (and (and (and (and (and (and (and (and (and (and (and (and (and (and (and (and (and (and (and (and (and (and (and (and (and (and (and (and (and (and (and (and (and (and (and (and (and (and (and (and (and (and (and (and (and (and (and (and (and (and (and (and (and (and (and (and (and (and (and (and (and (and (and (and (and (and (and (and (and (and (and (and (and (and (and (and (and (and (and (and (and (and (and (and (and (and (and (and (and (and (and (and (and (and (and (and (and (and (and (and (and (and (and (and (and (and (and (and (and (and (and (and (and (and (and (and (and (and (and (and (and (and (and (and (and (and (and (and (and (and (and (and (and (and (and (and (and (and (and (and (and (and (and (and (and (and (and (and (and (and (and (and (and (and (and (and (and (and (and (and (and (and (and (and (and (and (and (and (and (and (and (and (and (and (and (and (and (and (and (and (and (and (and (and (and (and (and (and (and (and (and (and (and (and (and (and (and (and (and (and (and (and (and (and (and (and (and (and (and (and (and (and (and (and (and (and (and (and (and (and (and (and (and (and (and (and (and (and (and (and (and (and (and (and (and (and (and (and (and (and (and (and (and (and (and (and (and (and (and (and (and (and (and (and (and (and (and (and (and (and (and (and (and (and (and (and (and (and (and (and (and (and (and (and (and (and (and (and (and (and (and (and (and (and (and (and (and (and (and (and (and (and (and (and (and (and (and (and (and (and (and (and (and (and (and (and (and (and (and (and (and (and (and (and (and (and (and (and (and (and (and (and (and (and (and (and (and (and (and (and (and (and (and (and (and (and (and (and (and (and (and (and (and (and (and (and (and (and (and (and (and (and (and (and (and (and (and (and (and (and (and (and (and (and (and (and (and (and (and (and (and (and (and (and (and (and (and (and (and (and (and (and (and (and (and (and (and (and (and (and (and (and (and (and (and (and (and (and (and (and (and (and (and (and (and (and (and (and (and (and (and (and (and (and (and (and (and (and (and (and (and (and (and (and (and (and (and (and (and (and (and (and (and (and (and (and (and (and (and (and (and (and (and (and (and (and (and (and (and (and (and (and (and (and (and (and (and (and (and (and (and (and (and (and (and (or (or ?v_232 ?v_34) ?v_2) (or (or ?v_170 ?v_136) ?v_179)) (or (or ?v_25 ?v_33) ?v_40)) (or (or ?v_0 ?v_100) ?v_101)) (or (or ?v_65 P33) ?v_3)) (or (or P46 ?v_184) ?v_0)) (or (or P2 ?v_71) ?v_8)) (or (or ?v_14 ?v_1) ?v_5)) (or (or ?v_4 P13) ?v_2)) (or (or P28 ?v_3) ?v_39)) (or (or ?v_69 P41) P17)) (or (or ?v_61 ?v_12) ?v_31)) (or (or ?v_193 ?v_146) ?v_5)) (or (or P30 ?v_7) ?v_123)) (or (or ?v_10 ?v_22) ?v_46)) (or (or ?v_54 ?v_20) ?v_7)) (or (or P39 ?v_68) ?v_49)) (or (or ?v_16 ?v_57) ?v_9)) (or (or ?v_27 ?v_9) ?v_10)) (or (or ?v_24 ?v_18) ?v_67)) (or (or ?v_21 ?v_19) ?v_12)) (or (or P30 ?v_36) ?v_13)) (or (or ?v_5 ?v_87) P4)) (or (or P24 ?v_13) ?v_14)) (or (or ?v_167 ?v_23) P31)) (or (or ?v_16 ?v_47) P29)) (or (or ?v_225 ?v_18) ?v_19)) (or (or P35 ?v_20) ?v_26)) (or (or ?v_104 ?v_62) ?v_73)) (or (or ?v_21 P1) ?v_22)) (or (or ?v_23 ?v_59) ?v_24)) (or (or ?v_25 ?v_112) ?v_26)) (or (or ?v_148 ?v_86) P3)) (or (or ?v_82 ?v_27) ?v_60)) (or (or ?v_99 ?v_163) ?v_48)) (or (or ?v_29 ?v_51) P28)) (or (or ?v_81 ?v_30) ?v_145)) (or (or ?v_31 ?v_224) ?v_14)) (or (or ?v_129 ?v_66) ?v_33)) (or (or ?v_97 ?v_186) ?v_34)) (or (or ?v_35 ?v_36) ?v_37)) (or (or ?v_38 P44) ?v_52)) (or (or ?v_260 ?v_137) P12)) (or (or ?v_39 ?v_9) ?v_41)) (or (or ?v_21 ?v_40) ?v_41)) (or (or ?v_42 ?v_43) P48)) (or (or ?v_90 ?v_9) ?v_226)) (or (or P14 ?v_19) ?v_133)) (or (or P42 ?v_166) ?v_132)) (or (or ?v_64 ?v_13) ?v_46)) (or (or ?v_47 ?v_48) ?v_33)) (or (or ?v_77 P46) ?v_147)) (or (or ?v_204 ?v_49) P34)) (or (or ?v_56 ?v_50) ?v_51)) (or (or ?v_9 ?v_52) ?v_144)) (or (or ?v_53 ?v_54) P43)) (or (or ?v_55 ?v_239) ?v_80)) (or (or ?v_74 P28) ?v_124)) (or (or ?v_56 ?v_57) ?v_58)) (or (or ?v_222 ?v_70) ?v_218)) (or (or P16 P34) ?v_111)) (or (or ?v_127 P4) ?v_154)) (or (or ?v_60 ?v_187) ?v_61)) (or (or ?v_62 ?v_41) ?v_63)) (or (or ?v_131 ?v_93) ?v_108)) (or (or ?v_102 P14) ?v_65)) (or (or P1 ?v_181) ?v_169)) (or (or P38 ?v_67) ?v_68)) (or (or ?v_69 P47) ?v_70)) (or (or ?v_23 ?v_151) ?v_214)) (or (or ?v_113 ?v_54) P34)) (or (or ?v_76 ?v_85) P15)) (or (or ?v_74 ?v_182) ?v_75)) (or (or ?v_76 ?v_115) P18)) (or (or ?v_77 ?v_258) ?v_107)) (or (or ?v_78 ?v_29) ?v_109)) (or (or ?v_256 ?v_84) ?v_80)) (or (or ?v_29 ?v_81) ?v_37)) (or (or ?v_82 ?v_118) ?v_83)) (or (or ?v_37 ?v_84) ?v_105)) (or (or ?v_91 ?v_213) ?v_203)) (or (or ?v_86 ?v_87) ?v_88)) (or (or ?v_37 ?v_158) ?v_69)) (or (or ?v_194 P29) ?v_134)) (or (or ?v_69 ?v_89) ?v_106)) (or (or ?v_128 ?v_1) ?v_64)) (or (or ?v_230 ?v_168) ?v_48)) (or (or ?v_125 ?v_140) ?v_7)) (or (or ?v_175 ?v_96) ?v_155)) (or (or ?v_250 ?v_85) ?v_42)) (or (or ?v_24 P29) ?v_83)) (or (or ?v_216 ?v_92) ?v_93)) (or (or ?v_110 ?v_139) ?v_164)) (or (or ?v_21 ?v_14) ?v_94)) (or (or ?v_95 ?v_96) ?v_97)) (or (or ?v_103 ?v_160) ?v_99)) (or (or ?v_197 ?v_233) ?v_101)) (or (or ?v_92 ?v_76) ?v_150)) (or (or P33 ?v_102) ?v_237)) (or (or ?v_46 ?v_84) ?v_104)) (or (or ?v_105 ?v_82) ?v_106)) (or (or ?v_71 ?v_243) ?v_223)) (or (or ?v_93 P36) ?v_107)) (or (or ?v_51 ?v_69) ?v_108)) (or (or ?v_1 P35) ?v_109)) (or (or ?v_110 ?v_111) ?v_149)) (or (or ?v_112 ?v_199) ?v_114)) (or (or ?v_115 ?v_116) ?v_117)) (or (or ?v_153 ?v_23) ?v_39)) (or (or ?v_66 ?v_235) ?v_156)) (or (or ?v_118 P9) ?v_119)) (or (or ?v_50 ?v_241) ?v_202)) (or (or ?v_120 ?v_126) ?v_121)) (or (or ?v_122 ?v_71) ?v_123)) (or (or ?v_117 ?v_21) ?v_94)) (or (or ?v_104 ?v_124) ?v_125)) (or (or ?v_189 ?v_127) ?v_183)) (or (or ?v_71 P18) ?v_62)) (or (or ?v_128 P25) ?v_89)) (or (or P49 ?v_35) ?v_141)) (or (or ?v_10 ?v_69) P19)) (or (or ?v_31 ?v_129) ?v_205)) (or (or ?v_54 ?v_29) ?v_192)) (or (or ?v_115 ?v_130) ?v_50)) (or (or ?v_12 ?v_131) ?v_132)) (or (or ?v_133 ?v_64) ?v_107)) (or (or P19 ?v_129) ?v_4)) (or (or ?v_134 P32) P46)) (or (or ?v_135 ?v_119) ?v_238)) (or (or P14 ?v_88) ?v_87)) (or (or ?v_159 ?v_34) ?v_24)) (or (or ?v_136 ?v_137) ?v_138)) (or (or ?v_25 ?v_139) ?v_125)) (or (or ?v_84 ?v_69) ?v_140)) (or (or ?v_117 P3) ?v_173)) (or (or ?v_177 ?v_134) ?v_141)) (or (or ?v_26 ?v_234) ?v_125)) (or (or ?v_27 P30) ?v_128)) (or (or ?v_109 ?v_220) ?v_221)) (or (or ?v_142 ?v_73) ?v_34)) (or (or ?v_143 ?v_100) P28)) (or (or P28 ?v_74) ?v_172)) (or (or ?v_84 ?v_39) ?v_145)) (or (or ?v_146 ?v_147) ?v_21)) (or (or P11 ?v_39) ?v_148)) (or (or ?v_9 P6) ?v_185)) (or (or ?v_22 ?v_111) P1)) (or (or ?v_130 P12) P13)) (or (or ?v_36 ?v_135) P22)) (or (or P43 P18) P10)) (or (or ?v_178 ?v_117) P15)) (or (or ?v_149 ?v_200) ?v_151)) (or (or ?v_152 P22) ?v_242)) (or (or ?v_103 P36) P7)) (or (or ?v_153 ?v_115) ?v_154)) (or (or P44 ?v_27) ?v_62)) (or (or ?v_155 P29) ?v_148)) (or (or ?v_119 P1) ?v_99)) (or (or ?v_142 ?v_66) ?v_26)) (or (or ?v_156 ?v_157) ?v_38)) (or (or ?v_158 ?v_159) P38)) (or (or P35 ?v_69) ?v_160)) (or (or ?v_161 P13) ?v_162)) (or (or ?v_104 ?v_163) ?v_164)) (or (or ?v_165 ?v_74) ?v_166)) (or (or ?v_18 ?v_7) ?v_43)) (or (or P13 ?v_212) P44)) (or (or ?v_92 ?v_96) ?v_231)) (or (or ?v_52 P2) P19)) (or (or P1 ?v_168) ?v_54)) (or (or ?v_99 P29) P4)) (or (or P8 ?v_169) ?v_149)) (or (or ?v_2 P45) ?v_137)) (or (or ?v_75 ?v_50) ?v_159)) (or (or P37 ?v_77) ?v_90)) (or (or ?v_228 ?v_170) ?v_171)) (or (or ?v_109 ?v_172) ?v_25)) (or (or ?v_53 ?v_173) ?v_188)) (or (or ?v_166 ?v_91) ?v_65)) (or (or ?v_219 ?v_59) P5)) (or (or ?v_103 ?v_34) ?v_115)) (or (or ?v_112 P47) P40)) (or (or ?v_34 ?v_201) ?v_14)) (or (or ?v_215 ?v_175) P8)) (or (or ?v_104 ?v_38) ?v_166)) (or (or ?v_176 ?v_190) ?v_177)) (or (or ?v_10 ?v_34) ?v_95)) (or (or ?v_139 ?v_73) P2)) (or (or ?v_236 ?v_150) ?v_178)) (or (or ?v_159 ?v_179) P46)) (or (or ?v_55 ?v_180) ?v_91)) (or (or ?v_181 ?v_249) ?v_122)) (or (or ?v_112 ?v_183) P2)) (or (or ?v_184 ?v_114) ?v_61)) (or (or ?v_129 P4) P8)) (or (or ?v_129 ?v_185) ?v_9)) (or (or ?v_25 ?v_186) ?v_34)) (or (or ?v_20 ?v_181) P2)) (or (or P35 ?v_86) ?v_87)) (or (or ?v_155 ?v_39) ?v_91)) (or ?v_246 P2)) (or (or ?v_65 P11) ?v_139)) (or (or ?v_178 P26) ?v_94)) (or (or ?v_7 ?v_140) ?v_188)) (or (or ?v_167 ?v_133) ?v_4)) (or (or ?v_105 ?v_58) ?v_101)) (or (or ?v_56 ?v_10) ?v_73)) (or (or P22 ?v_189) P30)) (or (or P14 ?v_4) ?v_190)) (or (or ?v_30 ?v_127) ?v_211)) (or (or ?v_20 ?v_191) P40)) (or (or ?v_64 ?v_121) ?v_192)) (or (or ?v_111 P29) ?v_115)) (or (or ?v_193 ?v_61) ?v_53)) (or (or ?v_194 ?v_195) ?v_186)) (or (or ?v_159 ?v_50) ?v_3)) (or (or ?v_14 ?v_185) ?v_196)) (or (or ?v_7 P4) ?v_161)) (or (or ?v_197 P18) ?v_143)) (or (or ?v_194 ?v_88) P0)) (or (or ?v_198 ?v_197) ?v_199)) (or (or ?v_131 ?v_200) ?v_100)) (or (or P37 P46) ?v_240)) (or (or ?v_64 ?v_202) ?v_5)) (or (or ?v_70 ?v_179) ?v_59)) (or (or ?v_203 ?v_203) ?v_92)) (or (or ?v_209 ?v_202) ?v_184)) (or (or ?v_116 ?v_244) ?v_149)) (or (or ?v_201 ?v_205) ?v_206)) (or (or ?v_155 ?v_131) ?v_207)) (or (or P41 ?v_96) ?v_142)) (or (or ?v_39 ?v_1) ?v_144)) (or (or ?v_152 ?v_208) ?v_154)) (or (or ?v_143 ?v_204) ?v_161)) (or (or ?v_167 ?v_59) P29)) (or (or P2 ?v_185) P15)) (or (or ?v_191 ?v_30) ?v_69)) (or (or ?v_209 ?v_120) ?v_161)) (or (or ?v_12 ?v_85) ?v_148)) (or (or ?v_93 ?v_210) ?v_211)) (or (or ?v_175 ?v_212) ?v_88)) (or (or P14 ?v_99) ?v_194)) (or (or ?v_107 P45) ?v_129)) (or (or ?v_141 ?v_259) ?v_200)) (or (or ?v_207 P43) ?v_33)) (or (or ?v_195 ?v_213) ?v_37)) (or (or P26 ?v_74) ?v_214)) (or (or P10 ?v_136) ?v_227)) (or (or ?v_215 ?v_178) ?v_216)) (or (or ?v_217 ?v_195) ?v_92)) (or (or P6 P33) ?v_217)) (or (or ?v_191 ?v_247) ?v_99)) (or (or ?v_4 ?v_169) P19)) (or (or ?v_186 ?v_21) ?v_71)) (or (or ?v_173 ?v_108) P44)) (or (or ?v_218 ?v_160) ?v_219)) (or (or ?v_220 ?v_42) ?v_151)) (or (or ?v_221 ?v_219) ?v_68)) (or (or ?v_142 ?v_53) ?v_222)) (or (or ?v_113 ?v_177) ?v_223)) (or (or ?v_148 ?v_222) ?v_34)) (or (or ?v_26 P16) ?v_147)) (or (or ?v_126 P11) P45)) (or (or ?v_216 ?v_152) ?v_224)) (or (or P49 ?v_103) P43)) (or (or ?v_132 ?v_39) P4)) (or (or ?v_257 ?v_141) ?v_75)) (or (or ?v_183 ?v_124) ?v_96)) (or (or ?v_170 ?v_132) ?v_84)) (or (or ?v_168 ?v_208) P4)) (or (or ?v_74 ?v_33) ?v_76)) (or (or ?v_92 P4) ?v_225)) (or (or ?v_180 P38) ?v_47)) (or (or P16 P47) P36)) (or (or ?v_25 ?v_175) ?v_156)) (or (or P15 ?v_172) ?v_12)) (or (or ?v_106 ?v_226) ?v_203)) (or (or ?v_227 ?v_19) ?v_90)) (or (or P36 ?v_192) ?v_60)) (or (or ?v_177 ?v_10) ?v_48)) (or (or ?v_148 ?v_52) ?v_13)) (or (or ?v_175 ?v_83) ?v_227)) (or (or ?v_120 ?v_149) ?v_1)) (or (or ?v_228 ?v_208) ?v_16)) (or (or ?v_39 P29) P47)) (or (or ?v_41 ?v_118) ?v_75)) (or (or ?v_134 ?v_229) ?v_54)) (or (or P35 ?v_230) ?v_213)) (or (or ?v_21 P14) P34)) (or (or ?v_145 ?v_71) ?v_161)) (or (or ?v_124 ?v_59) ?v_81)) (or (or ?v_1 ?v_36) ?v_252)) (or (or ?v_141 ?v_91) ?v_191)) (or (or P22 P27) ?v_151)) (or (or ?v_200 ?v_31) ?v_129)) (or (or ?v_229 ?v_198) ?v_101)) (or (or P34 P11) ?v_226)) (or (or ?v_139 ?v_76) ?v_109)) (or (or ?v_222 ?v_254) ?v_113)) (or (or ?v_231 ?v_91) ?v_221)) (or (or ?v_73 ?v_22) ?v_175)) (or (or ?v_102 ?v_158) ?v_39)) (or (or ?v_83 ?v_179) ?v_77)) (or (or ?v_21 P21) ?v_126)) (or (or P24 P45) P16)) (or (or ?v_131 P37) ?v_85)) (or (or ?v_42 P44) ?v_53)) (or (or ?v_224 ?v_102) ?v_8)) (or (or ?v_108 P18) ?v_125)) (or (or P32 P11) ?v_232)) (or (or ?v_2 ?v_71) ?v_162)) (or (or ?v_157 ?v_233) ?v_5)) (or (or ?v_62 ?v_234) ?v_107)) (or (or ?v_8 P17) ?v_70)) (or (or ?v_197 P24) P45)) (or (or P46 ?v_206) ?v_102)) (or (or ?v_96 ?v_52) ?v_130)) (or (or ?v_85 ?v_62) ?v_186)) (or (or ?v_8 ?v_202) ?v_234)) (or (or ?v_85 ?v_133) ?v_160)) (or (or ?v_235 ?v_89) ?v_122)) (or (or P49 ?v_236) ?v_222)) (or (or P5 ?v_200) ?v_112)) (or (or ?v_13 ?v_1) ?v_225)) (or (or ?v_56 ?v_237) ?v_222)) (or (or ?v_230 ?v_23) ?v_76)) (or (or ?v_39 P27) ?v_140)) (or (or ?v_109 ?v_35) ?v_47)) (or (or ?v_89 ?v_125) ?v_184)) (or (or P8 ?v_39) ?v_228)) (or (or P41 ?v_235) ?v_238)) (or (or ?v_77 ?v_80) ?v_27)) (or (or ?v_228 P33) ?v_210)) (or (or ?v_188 ?v_48) ?v_161)) (or (or ?v_71 ?v_56) ?v_219)) (or (or P35 ?v_207) ?v_89)) (or (or ?v_186 ?v_19) P17)) (or (or P10 ?v_251) ?v_189)) (or (or P47 ?v_1) ?v_2)) (or (or ?v_185 ?v_86) ?v_180)) (or (or ?v_58 P22) ?v_63)) (or (or ?v_97 ?v_119) ?v_206)) (or (or ?v_190 ?v_226) ?v_34)) (or (or ?v_213 P9) ?v_65)) (or (or ?v_24 ?v_211) P3)) (or (or ?v_5 ?v_217) ?v_91)) (or (or ?v_80 P37) ?v_176)) (or (or ?v_201 ?v_220) ?v_194)) (or (or ?v_111 P14) ?v_56)) (or (or ?v_54 ?v_9) ?v_99)) (or (or ?v_29 ?v_103) ?v_213)) (or (or ?v_96 ?v_151) ?v_153)) (or (or ?v_37 ?v_124) ?v_22)) (or (or P1 ?v_27) ?v_100)) (or (or ?v_51 ?v_202) ?v_216)) (or (or ?v_24 ?v_12) ?v_89)) (or (or ?v_222 ?v_236) ?v_12)) (or (or ?v_157 P45) ?v_7)) (or (or ?v_231 P38) ?v_47)) (or (or P10 ?v_122) ?v_216)) (or (or ?v_205 ?v_239) ?v_126)) (or (or ?v_26 ?v_240) ?v_2)) (or (or ?v_14 ?v_196) ?v_49)) (or (or ?v_194 ?v_201) P15)) (or (or ?v_53 ?v_196) ?v_128)) (or (or ?v_176 ?v_95) P34)) (or (or ?v_209 ?v_57) ?v_241)) (or (or ?v_242 ?v_188) ?v_145)) (or (or ?v_212 ?v_101) P27)) (or (or ?v_147 ?v_188) ?v_67)) (or (or ?v_107 ?v_2) ?v_181)) (or (or ?v_146 ?v_149) ?v_226)) (or (or P5 ?v_5) P24)) (or (or ?v_113 ?v_206) ?v_230)) (or (or P32 ?v_243) P34)) (or (or ?v_39 ?v_193) ?v_170)) (or (or ?v_77 P33) ?v_186)) (or (or ?v_244 ?v_7) ?v_12)) (or (or P11 ?v_133) ?v_192)) (or (or ?v_97 ?v_213) ?v_157)) (or (or ?v_68 ?v_71) ?v_163)) (or (or ?v_55 P4) ?v_173)) (or (or ?v_129 ?v_91) P25)) (or (or ?v_185 ?v_4) ?v_216)) (or (or ?v_61 ?v_118) ?v_180)) (or (or ?v_99 ?v_3) ?v_111)) (or (or P48 ?v_154) ?v_162)) (or (or ?v_160 ?v_243) ?v_81)) (or (or ?v_202 ?v_80) ?v_18)) (or (or ?v_239 ?v_52) ?v_191)) (or (or ?v_236 ?v_47) ?v_94)) (or (or ?v_183 ?v_161) P46)) (or (or ?v_70 ?v_42) ?v_145)) (or (or ?v_185 ?v_147) ?v_222)) (or (or ?v_120 P26) ?v_235)) (or (or ?v_27 ?v_166) ?v_155)) (or (or ?v_163 ?v_245) ?v_136)) (or ?v_246 ?v_158)) (or (or ?v_172 ?v_108) ?v_20)) (or (or ?v_118 ?v_247) ?v_39)) (or (or ?v_180 ?v_104) ?v_49)) (or (or ?v_57 ?v_57) ?v_228)) (or (or ?v_59 ?v_40) ?v_73)) (or (or ?v_0 ?v_248) ?v_227)) (or (or ?v_229 P13) ?v_83)) (or (or ?v_244 ?v_170) ?v_161)) (or (or ?v_230 ?v_81) ?v_192)) (or (or ?v_21 P48) P29)) (or (or ?v_248 ?v_134) ?v_183)) (or (or ?v_1 ?v_148) ?v_64)) (or (or ?v_192 ?v_157) ?v_74)) (or (or P37 ?v_157) P14)) (or (or ?v_121 ?v_113) ?v_52)) (or (or ?v_185 ?v_204) P17)) (or (or ?v_151 ?v_5) P34)) (or (or ?v_225 ?v_115) ?v_186)) (or (or P47 ?v_203) ?v_225)) (or (or P39 P1) ?v_197)) (or (or ?v_103 ?v_30) P29)) (or (or P44 ?v_220) ?v_67)) (or (or ?v_7 ?v_199) ?v_188)) (or (or P11 P44) P39)) (or (or P18 P49) ?v_132)) (or (or ?v_46 ?v_50) ?v_2)) (or (or ?v_225 ?v_96) ?v_100)) (or (or ?v_78 ?v_59) ?v_141)) (or (or ?v_46 ?v_204) P13)) (or (or ?v_229 ?v_249) ?v_207)) (or (or ?v_164 ?v_82) ?v_74)) (or (or ?v_4 ?v_182) ?v_34)) (or (or ?v_87 ?v_155) P8)) (or (or P35 ?v_165) ?v_24)) (or (or ?v_199 ?v_73) ?v_57)) (or (or ?v_74 P15) ?v_16)) (or (or ?v_175 ?v_48) ?v_94)) (or (or ?v_218 ?v_92) ?v_233)) (or (or ?v_62 ?v_78) ?v_64)) (or (or ?v_139 ?v_49) ?v_187)) (or (or ?v_146 ?v_248) P43)) (or (or ?v_34 ?v_195) P47)) (or (or ?v_7 ?v_146) ?v_82)) (or (or ?v_18 ?v_122) ?v_232)) (or (or ?v_89 ?v_130) ?v_224)) (or (or ?v_99 ?v_191) ?v_222)) (or (or ?v_129 ?v_113) ?v_156)) (or (or ?v_173 ?v_31) ?v_100)) (or (or ?v_199 ?v_46) P30)) (or (or ?v_214 ?v_20) P9)) (or (or ?v_159 P3) ?v_48)) (or (or ?v_148 ?v_51) ?v_110)) (or (or ?v_114 ?v_49) P22)) (or (or P23 ?v_22) ?v_245)) (or (or ?v_52 ?v_35) ?v_119)) (or (or ?v_179 ?v_77) ?v_211)) (or (or ?v_75 P6) ?v_190)) (or (or P16 ?v_111) ?v_214)) (or (or ?v_224 P29) ?v_0)) (or (or ?v_175 P24) ?v_203)) (or (or ?v_35 ?v_250) ?v_195)) (or (or ?v_56 ?v_118) ?v_26)) (or (or ?v_57 ?v_41) ?v_142)) (or (or ?v_67 ?v_163) ?v_20)) (or (or ?v_149 ?v_88) ?v_108)) (or (or ?v_251 ?v_78) ?v_203)) (or (or ?v_84 ?v_104) ?v_97)) (or (or ?v_133 ?v_23) ?v_71)) (or (or ?v_82 ?v_220) ?v_247)) (or (or ?v_1 ?v_141) ?v_130)) (or (or ?v_144 ?v_63) ?v_125)) (or (or ?v_222 ?v_255) ?v_144)) (or (or ?v_20 ?v_205) P14)) (or (or P24 ?v_151) ?v_141)) (or (or ?v_57 ?v_124) ?v_207)) (or (or ?v_245 ?v_99) ?v_67)) (or (or ?v_58 ?v_225) ?v_251)) (or (or P13 ?v_217) P42)) (or (or ?v_239 ?v_108) ?v_193)) (or (or ?v_159 ?v_105) ?v_142)) (or (or ?v_71 ?v_52) ?v_115)) (or (or P13 ?v_71) ?v_27)) (or (or ?v_200 ?v_214) ?v_69)) (or (or ?v_193 ?v_2) ?v_70)) (or (or ?v_118 ?v_95) P16)) (or (or P17 ?v_54) ?v_175)) (or (or ?v_252 ?v_33) P33)) (or (or ?v_107 P12) ?v_253)) (or (or ?v_5 P15) P37)) (or (or P11 ?v_62) ?v_129)) (or (or ?v_70 ?v_200) ?v_14)) (or (or ?v_31 ?v_238) ?v_76)) (or (or P29 ?v_249) ?v_117)) (or (or ?v_105 ?v_173) ?v_232)) (or (or ?v_195 P43) ?v_92)) (or (or ?v_227 ?v_137) P13)) (or (or ?v_5 ?v_108) ?v_92)) (or (or ?v_231 ?v_153) ?v_176)) (or (or ?v_52 ?v_93) ?v_139)) (or (or P43 ?v_209) ?v_108)) (or (or ?v_49 ?v_164) P26)) (or (or P43 P21) ?v_254)) (or (or ?v_142 ?v_113) ?v_149)) (or (or ?v_140 ?v_54) ?v_96)) (or (or ?v_62 ?v_109) ?v_88)) (or (or ?v_249 P49) ?v_37)) (or (or ?v_26 ?v_255) P11)) (or (or ?v_65 ?v_106) P42)) (or (or ?v_196 ?v_219) ?v_151)) (or (or ?v_2 ?v_215) ?v_205)) (or (or ?v_196 ?v_223) ?v_155)) (or (or ?v_214 ?v_133) ?v_95)) (or (or ?v_213 ?v_153) P25)) (or (or ?v_100 ?v_26) ?v_193)) (or (or ?v_141 ?v_247) ?v_182)) (or (or ?v_95 ?v_43) ?v_218)) (or (or ?v_220 ?v_84) ?v_157)) (or (or ?v_0 P9) ?v_67)) (or (or ?v_254 ?v_181) ?v_120)) (or (or ?v_215 ?v_3) ?v_9)) (or (or ?v_128 ?v_207) ?v_181)) (or (or ?v_158 ?v_221) ?v_54)) (or (or ?v_139 ?v_233) ?v_183)) (or (or P11 ?v_36) ?v_119)) (or (or ?v_234 ?v_222) ?v_158)) (or (or ?v_218 ?v_237) ?v_34)) (or (or ?v_69 ?v_156) P16)) (or (or ?v_244 P6) ?v_116)) (or (or P9 ?v_99) ?v_179)) (or (or ?v_7 ?v_159) P45)) (or (or ?v_130 ?v_245) ?v_51)) (or (or ?v_37 ?v_208) ?v_198)) (or (or ?v_182 P47) ?v_247)) (or (or ?v_94 ?v_31) P36)) (or (or ?v_217 ?v_88) ?v_46)) (or (or ?v_125 ?v_117) ?v_227)) (or (or P0 ?v_99) ?v_21)) (or (or ?v_80 ?v_66) P16)) (or (or ?v_166 ?v_195) ?v_114)) (or (or ?v_150 ?v_91) P6)) (or (or ?v_119 ?v_86) ?v_203)) (or (or ?v_110 ?v_208) P4)) (or (or ?v_74 ?v_97) ?v_102)) (or (or ?v_102 ?v_238) ?v_211)) (or (or ?v_206 ?v_127) ?v_232)) (or (or ?v_29 ?v_71) ?v_256)) (or (or ?v_209 ?v_177) ?v_50)) (or (or ?v_92 ?v_122) P44)) (or (or ?v_31 ?v_91) P39)) (or (or ?v_146 ?v_77) ?v_181)) (or (or ?v_234 P17) P23)) (or (or P41 ?v_143) ?v_121)) (or (or ?v_14 ?v_33) ?v_146)) (or (or ?v_62 ?v_236) ?v_81)) (or (or ?v_166 P8) ?v_97)) (or (or ?v_97 ?v_184) P27)) (or (or ?v_154 P38) ?v_49)) (or (or ?v_19 ?v_84) ?v_66)) (or (or ?v_186 ?v_211) ?v_122)) (or (or ?v_217 ?v_100) P46)) (or (or ?v_234 ?v_186) ?v_62)) (or (or ?v_154 ?v_164) ?v_244)) (or (or ?v_211 ?v_50) ?v_27)) (or (or ?v_82 ?v_199) ?v_127)) (or (or ?v_230 ?v_109) ?v_107)) (or (or ?v_83 ?v_226) ?v_156)) (or (or ?v_83 ?v_66) ?v_54)) (or (or ?v_112 ?v_221) ?v_147)) (or (or ?v_256 P40) ?v_99)) (or (or ?v_58 ?v_36) ?v_23)) (or (or ?v_233 ?v_50) ?v_156)) (or (or ?v_173 ?v_111) ?v_92)) (or (or ?v_211 P20) ?v_158)) (or (or P33 ?v_244) ?v_75)) (or (or ?v_110 ?v_59) ?v_187)) (or (or ?v_117 ?v_106) ?v_1)) (or (or P48 ?v_151) ?v_251)) (or (or ?v_257 ?v_61) ?v_84)) (or (or ?v_186 ?v_160) ?v_187)) (or (or P19 P46) ?v_150)) (or (or P45 ?v_47) ?v_184)) (or (or ?v_76 ?v_142) ?v_184)) (or (or ?v_81 ?v_87) ?v_76)) (or (or P1 ?v_90) P41)) (or (or ?v_105 P27) ?v_80)) (or (or ?v_187 ?v_150) ?v_178)) (or (or ?v_84 P40) ?v_60)) (or (or ?v_258 ?v_113) P14)) (or (or ?v_109 ?v_116) ?v_168)) (or (or ?v_13 ?v_91) ?v_240)) (or (or ?v_200 ?v_259) ?v_243)) (or (or P28 P15) ?v_118)) (or (or P30 P14) ?v_70)) (or (or ?v_76 ?v_69) P43)) (or (or ?v_109 ?v_34) ?v_260)) (or (or ?v_38 ?v_226) P21)) (or (or ?v_190 (not ?v_21)) ?v_147)) (or (or ?v_119 P28) ?v_36)) (or (or ?v_52 ?v_34) ?v_136)) (or (or ?v_74 ?v_93) ?v_69)) (or (or ?v_2 ?v_216) ?v_38)) (or (or ?v_153 ?v_140) P37))))))))))))))))))))))))))))))))))))))
(check-sat)
(exit)
